(set-info :category "industrial")
(set-info :status sat)
(declare-fun x1 () (_ BitVec 32))
(declare-fun x2 () (_ BitVec 32))
(declare-fun x3 () (_ BitVec 32))
(declare-fun x4 () (_ BitVec 32))
(declare-fun x5 () (_ BitVec 32))
(declare-fun x6 () (_ BitVec 32))
(declare-fun x7 () (_ BitVec 32))
(declare-fun x8 () (_ BitVec 32))
(declare-fun x9 () (_ BitVec 32))
(declare-fun x10 () (_ BitVec 32))
(declare-fun x11 () (_ BitVec 32))
(declare-fun x12 () (_ BitVec 32))
(declare-fun x13 () (_ BitVec 32))
(declare-fun x14 () (_ BitVec 32))
(declare-fun x15 () (_ BitVec 32))
(declare-fun x16 () (_ BitVec 32))
(declare-fun x17 () (_ BitVec 32))
(declare-fun x18 () (_ BitVec 32))
(declare-fun x19 () (_ BitVec 32))
(declare-fun x20 () (_ BitVec 32))
(declare-fun x21 () (_ BitVec 32))
(declare-fun x22 () (_ BitVec 32))
(declare-fun x23 () (_ BitVec 32))
(declare-fun x24 () (_ BitVec 32))
(declare-fun x25 () (_ BitVec 32))
(declare-fun x26 () (_ BitVec 32))
(declare-fun x27 () (_ BitVec 32))
(declare-fun x28 () (_ BitVec 32))
(declare-fun x29 () (_ BitVec 32))
(declare-fun x30 () (_ BitVec 32))
(declare-fun x31 () (_ BitVec 32))
(declare-fun x32 () (_ BitVec 32))
(declare-fun x33 () (_ BitVec 32))
(declare-fun x34 () (_ BitVec 32))
(declare-fun x35 () (_ BitVec 32))
(declare-fun x36 () (_ BitVec 32))
(declare-fun x37 () (_ BitVec 32))
(declare-fun x38 () (_ BitVec 32))
(declare-fun x39 () (_ BitVec 32))
(declare-fun x40 () (_ BitVec 32))
(declare-fun x41 () (_ BitVec 32))
(declare-fun x42 () (_ BitVec 32))
(declare-fun x43 () (_ BitVec 32))
(declare-fun x44 () (_ BitVec 32))
(declare-fun x45 () (_ BitVec 32))
(declare-fun x46 () (_ BitVec 32))
(declare-fun x47 () (_ BitVec 32))
(declare-fun x48 () (_ BitVec 32))
(declare-fun x49 () (_ BitVec 32))
(declare-fun x50 () (_ BitVec 32))
(declare-fun x51 () (_ BitVec 32))
(declare-fun x52 () (_ BitVec 32))
(declare-fun x53 () (_ BitVec 32))
(declare-fun x54 () (_ BitVec 32))
(declare-fun x55 () (_ BitVec 32))
(declare-fun x56 () (_ BitVec 32))
(declare-fun x57 () (_ BitVec 32))
(declare-fun x58 () (_ BitVec 32))
(declare-fun x59 () (_ BitVec 32))
(declare-fun x60 () (_ BitVec 32))
(declare-fun x61 () (_ BitVec 32))
(declare-fun x62 () (_ BitVec 32))
(declare-fun x63 () (_ BitVec 32))
(declare-fun x64 () (_ BitVec 32))
(declare-fun x65 () (_ BitVec 32))
(declare-fun x66 () (_ BitVec 32))
(declare-fun x67 () (_ BitVec 32))
(declare-fun x68 () (_ BitVec 32))
(declare-fun x69 () (_ BitVec 32))
(declare-fun x70 () (_ BitVec 32))
(declare-fun x71 () (_ BitVec 32))
(declare-fun x72 () (_ BitVec 32))
(declare-fun x73 () (_ BitVec 32))
(declare-fun x74 () (_ BitVec 32))
(declare-fun x75 () (_ BitVec 32))
(declare-fun x76 () (_ BitVec 32))
(declare-fun x77 () (_ BitVec 32))
(declare-fun x78 () (_ BitVec 32))
(declare-fun x79 () (_ BitVec 32))
(declare-fun x80 () (_ BitVec 32))
(declare-fun x81 () (_ BitVec 32))
(declare-fun x82 () (_ BitVec 32))
(declare-fun x83 () (_ BitVec 32))
(declare-fun x84 () (_ BitVec 32))
(declare-fun x85 () (_ BitVec 32))
(declare-fun x86 () (_ BitVec 32))
(declare-fun x87 () (_ BitVec 32))
(declare-fun x88 () (_ BitVec 32))
(declare-fun x89 () (_ BitVec 32))
(declare-fun x90 () (_ BitVec 32))
(declare-fun x91 () (_ BitVec 32))
(declare-fun x92 () (_ BitVec 32))
(declare-fun x93 () (_ BitVec 32))
(declare-fun x94 () (_ BitVec 32))
(declare-fun x95 () (_ BitVec 32))
(assert (bvult x1 (_ bv7 32)))
(assert (bvult x2 (_ bv7 32)))
(assert (bvult x3 (_ bv7 32)))
(assert (bvult x4 (_ bv7 32)))
(assert (bvult x5 (_ bv7 32)))
(assert (bvult x6 (_ bv7 32)))
(assert (bvult x7 (_ bv7 32)))
(assert (bvult x8 (_ bv7 32)))
(assert (bvult x9 (_ bv7 32)))
(assert (bvult x10 (_ bv7 32)))
(assert (bvult x11 (_ bv7 32)))
(assert (bvult x12 (_ bv7 32)))
(assert (bvult x13 (_ bv7 32)))
(assert (bvult x14 (_ bv7 32)))
(assert (bvult x15 (_ bv7 32)))
(assert (bvult x16 (_ bv7 32)))
(assert (bvult x17 (_ bv7 32)))
(assert (bvult x18 (_ bv7 32)))
(assert (bvult x19 (_ bv7 32)))
(assert (bvult x20 (_ bv7 32)))
(assert (bvult x21 (_ bv7 32)))
(assert (bvult x22 (_ bv7 32)))
(assert (bvult x23 (_ bv7 32)))
(assert (bvult x24 (_ bv7 32)))
(assert (bvult x25 (_ bv7 32)))
(assert (bvult x26 (_ bv7 32)))
(assert (bvult x27 (_ bv7 32)))
(assert (bvult x28 (_ bv7 32)))
(assert (bvult x29 (_ bv7 32)))
(assert (bvult x30 (_ bv7 32)))
(assert (bvult x31 (_ bv7 32)))
(assert (bvult x32 (_ bv7 32)))
(assert (bvult x33 (_ bv7 32)))
(assert (bvult x34 (_ bv7 32)))
(assert (bvult x35 (_ bv7 32)))
(assert (bvult x36 (_ bv7 32)))
(assert (bvult x37 (_ bv7 32)))
(assert (bvult x38 (_ bv7 32)))
(assert (bvult x39 (_ bv7 32)))
(assert (bvult x40 (_ bv7 32)))
(assert (bvult x41 (_ bv7 32)))
(assert (bvult x42 (_ bv7 32)))
(assert (bvult x43 (_ bv7 32)))
(assert (bvult x44 (_ bv7 32)))
(assert (bvult x45 (_ bv7 32)))
(assert (bvult x46 (_ bv7 32)))
(assert (bvult x47 (_ bv7 32)))
(assert (bvult x48 (_ bv7 32)))
(assert (bvult x49 (_ bv7 32)))
(assert (bvult x50 (_ bv7 32)))
(assert (bvult x51 (_ bv7 32)))
(assert (bvult x52 (_ bv7 32)))
(assert (bvult x53 (_ bv7 32)))
(assert (bvult x54 (_ bv7 32)))
(assert (bvult x55 (_ bv7 32)))
(assert (bvult x56 (_ bv7 32)))
(assert (bvult x57 (_ bv7 32)))
(assert (bvult x58 (_ bv7 32)))
(assert (bvult x59 (_ bv7 32)))
(assert (bvult x60 (_ bv7 32)))
(assert (bvult x61 (_ bv7 32)))
(assert (bvult x62 (_ bv7 32)))
(assert (bvult x63 (_ bv7 32)))
(assert (bvult x64 (_ bv7 32)))
(assert (bvult x65 (_ bv7 32)))
(assert (bvult x66 (_ bv7 32)))
(assert (bvult x67 (_ bv7 32)))
(assert (bvult x68 (_ bv7 32)))
(assert (bvult x69 (_ bv7 32)))
(assert (bvult x70 (_ bv7 32)))
(assert (bvult x71 (_ bv7 32)))
(assert (bvult x72 (_ bv7 32)))
(assert (bvult x73 (_ bv7 32)))
(assert (bvult x74 (_ bv7 32)))
(assert (bvult x75 (_ bv7 32)))
(assert (bvult x76 (_ bv7 32)))
(assert (bvult x77 (_ bv7 32)))
(assert (bvult x78 (_ bv7 32)))
(assert (bvult x79 (_ bv7 32)))
(assert (bvult x80 (_ bv7 32)))
(assert (bvult x81 (_ bv7 32)))
(assert (bvult x82 (_ bv7 32)))
(assert (bvult x83 (_ bv7 32)))
(assert (bvult x84 (_ bv7 32)))
(assert (bvult x85 (_ bv7 32)))
(assert (bvult x86 (_ bv7 32)))
(assert (bvult x87 (_ bv7 32)))
(assert (bvult x88 (_ bv7 32)))
(assert (bvult x89 (_ bv7 32)))
(assert (bvult x90 (_ bv7 32)))
(assert (bvult x91 (_ bv7 32)))
(assert (bvult x92 (_ bv7 32)))
(assert (bvult x93 (_ bv7 32)))
(assert (bvult x94 (_ bv7 32)))
(assert (bvult x95 (_ bv7 32)))
(assert (not (= x1 x2)))
(assert (not (= x1 x4)))
(assert (not (= x1 x7)))
(assert (not (= x1 x9)))
(assert (not (= x1 x13)))
(assert (not (= x1 x15)))
(assert (not (= x1 x18)))
(assert (not (= x1 x20)))
(assert (not (= x1 x25)))
(assert (not (= x1 x27)))
(assert (not (= x1 x30)))
(assert (not (= x1 x32)))
(assert (not (= x1 x36)))
(assert (not (= x1 x38)))
(assert (not (= x1 x41)))
(assert (not (= x1 x43)))
(assert (not (= x1 x49)))
(assert (not (= x1 x51)))
(assert (not (= x1 x54)))
(assert (not (= x1 x56)))
(assert (not (= x1 x60)))
(assert (not (= x1 x62)))
(assert (not (= x1 x65)))
(assert (not (= x1 x67)))
(assert (not (= x1 x72)))
(assert (not (= x1 x74)))
(assert (not (= x1 x77)))
(assert (not (= x1 x79)))
(assert (not (= x1 x83)))
(assert (not (= x1 x85)))
(assert (not (= x1 x88)))
(assert (not (= x1 x90)))
(assert (not (= x2 x3)))
(assert (not (= x2 x6)))
(assert (not (= x2 x8)))
(assert (not (= x2 x12)))
(assert (not (= x2 x14)))
(assert (not (= x2 x17)))
(assert (not (= x2 x19)))
(assert (not (= x2 x24)))
(assert (not (= x2 x26)))
(assert (not (= x2 x29)))
(assert (not (= x2 x31)))
(assert (not (= x2 x35)))
(assert (not (= x2 x37)))
(assert (not (= x2 x40)))
(assert (not (= x2 x42)))
(assert (not (= x2 x48)))
(assert (not (= x2 x50)))
(assert (not (= x2 x53)))
(assert (not (= x2 x55)))
(assert (not (= x2 x59)))
(assert (not (= x2 x61)))
(assert (not (= x2 x64)))
(assert (not (= x2 x66)))
(assert (not (= x2 x71)))
(assert (not (= x2 x73)))
(assert (not (= x2 x76)))
(assert (not (= x2 x78)))
(assert (not (= x2 x82)))
(assert (not (= x2 x84)))
(assert (not (= x2 x87)))
(assert (not (= x2 x89)))
(assert (not (= x3 x5)))
(assert (not (= x3 x7)))
(assert (not (= x3 x10)))
(assert (not (= x3 x13)))
(assert (not (= x3 x16)))
(assert (not (= x3 x18)))
(assert (not (= x3 x21)))
(assert (not (= x3 x25)))
(assert (not (= x3 x28)))
(assert (not (= x3 x30)))
(assert (not (= x3 x33)))
(assert (not (= x3 x36)))
(assert (not (= x3 x39)))
(assert (not (= x3 x41)))
(assert (not (= x3 x44)))
(assert (not (= x3 x49)))
(assert (not (= x3 x52)))
(assert (not (= x3 x54)))
(assert (not (= x3 x57)))
(assert (not (= x3 x60)))
(assert (not (= x3 x63)))
(assert (not (= x3 x65)))
(assert (not (= x3 x68)))
(assert (not (= x3 x72)))
(assert (not (= x3 x75)))
(assert (not (= x3 x77)))
(assert (not (= x3 x80)))
(assert (not (= x3 x83)))
(assert (not (= x3 x86)))
(assert (not (= x3 x88)))
(assert (not (= x3 x91)))
(assert (not (= x4 x5)))
(assert (not (= x4 x6)))
(assert (not (= x4 x10)))
(assert (not (= x4 x12)))
(assert (not (= x4 x16)))
(assert (not (= x4 x17)))
(assert (not (= x4 x21)))
(assert (not (= x4 x24)))
(assert (not (= x4 x28)))
(assert (not (= x4 x29)))
(assert (not (= x4 x33)))
(assert (not (= x4 x35)))
(assert (not (= x4 x39)))
(assert (not (= x4 x40)))
(assert (not (= x4 x44)))
(assert (not (= x4 x48)))
(assert (not (= x4 x52)))
(assert (not (= x4 x53)))
(assert (not (= x4 x57)))
(assert (not (= x4 x59)))
(assert (not (= x4 x63)))
(assert (not (= x4 x64)))
(assert (not (= x4 x68)))
(assert (not (= x4 x71)))
(assert (not (= x4 x75)))
(assert (not (= x4 x76)))
(assert (not (= x4 x80)))
(assert (not (= x4 x82)))
(assert (not (= x4 x86)))
(assert (not (= x4 x87)))
(assert (not (= x4 x91)))
(assert (not (= x5 x8)))
(assert (not (= x5 x9)))
(assert (not (= x5 x14)))
(assert (not (= x5 x15)))
(assert (not (= x5 x19)))
(assert (not (= x5 x20)))
(assert (not (= x5 x26)))
(assert (not (= x5 x27)))
(assert (not (= x5 x31)))
(assert (not (= x5 x32)))
(assert (not (= x5 x37)))
(assert (not (= x5 x38)))
(assert (not (= x5 x42)))
(assert (not (= x5 x43)))
(assert (not (= x5 x50)))
(assert (not (= x5 x51)))
(assert (not (= x5 x55)))
(assert (not (= x5 x56)))
(assert (not (= x5 x61)))
(assert (not (= x5 x62)))
(assert (not (= x5 x66)))
(assert (not (= x5 x67)))
(assert (not (= x5 x73)))
(assert (not (= x5 x74)))
(assert (not (= x5 x78)))
(assert (not (= x5 x79)))
(assert (not (= x5 x84)))
(assert (not (= x5 x85)))
(assert (not (= x5 x89)))
(assert (not (= x5 x90)))
(assert (not (= x6 x11)))
(assert (not (= x6 x13)))
(assert (not (= x6 x15)))
(assert (not (= x6 x22)))
(assert (not (= x6 x25)))
(assert (not (= x6 x27)))
(assert (not (= x6 x34)))
(assert (not (= x6 x36)))
(assert (not (= x6 x38)))
(assert (not (= x6 x45)))
(assert (not (= x6 x49)))
(assert (not (= x6 x51)))
(assert (not (= x6 x58)))
(assert (not (= x6 x60)))
(assert (not (= x6 x62)))
(assert (not (= x6 x69)))
(assert (not (= x6 x72)))
(assert (not (= x6 x74)))
(assert (not (= x6 x81)))
(assert (not (= x6 x83)))
(assert (not (= x6 x85)))
(assert (not (= x6 x92)))
(assert (not (= x7 x11)))
(assert (not (= x7 x12)))
(assert (not (= x7 x14)))
(assert (not (= x7 x22)))
(assert (not (= x7 x24)))
(assert (not (= x7 x26)))
(assert (not (= x7 x34)))
(assert (not (= x7 x35)))
(assert (not (= x7 x37)))
(assert (not (= x7 x45)))
(assert (not (= x7 x48)))
(assert (not (= x7 x50)))
(assert (not (= x7 x58)))
(assert (not (= x7 x59)))
(assert (not (= x7 x61)))
(assert (not (= x7 x69)))
(assert (not (= x7 x71)))
(assert (not (= x7 x73)))
(assert (not (= x7 x81)))
(assert (not (= x7 x82)))
(assert (not (= x7 x84)))
(assert (not (= x7 x92)))
(assert (not (= x8 x11)))
(assert (not (= x8 x13)))
(assert (not (= x8 x16)))
(assert (not (= x8 x22)))
(assert (not (= x8 x25)))
(assert (not (= x8 x28)))
(assert (not (= x8 x34)))
(assert (not (= x8 x36)))
(assert (not (= x8 x39)))
(assert (not (= x8 x45)))
(assert (not (= x8 x49)))
(assert (not (= x8 x52)))
(assert (not (= x8 x58)))
(assert (not (= x8 x60)))
(assert (not (= x8 x63)))
(assert (not (= x8 x69)))
(assert (not (= x8 x72)))
(assert (not (= x8 x75)))
(assert (not (= x8 x81)))
(assert (not (= x8 x83)))
(assert (not (= x8 x86)))
(assert (not (= x8 x92)))
(assert (not (= x9 x11)))
(assert (not (= x9 x12)))
(assert (not (= x9 x16)))
(assert (not (= x9 x22)))
(assert (not (= x9 x24)))
(assert (not (= x9 x28)))
(assert (not (= x9 x34)))
(assert (not (= x9 x35)))
(assert (not (= x9 x39)))
(assert (not (= x9 x45)))
(assert (not (= x9 x48)))
(assert (not (= x9 x52)))
(assert (not (= x9 x58)))
(assert (not (= x9 x59)))
(assert (not (= x9 x63)))
(assert (not (= x9 x69)))
(assert (not (= x9 x71)))
(assert (not (= x9 x75)))
(assert (not (= x9 x81)))
(assert (not (= x9 x82)))
(assert (not (= x9 x86)))
(assert (not (= x9 x92)))
(assert (not (= x10 x11)))
(assert (not (= x10 x14)))
(assert (not (= x10 x15)))
(assert (not (= x10 x22)))
(assert (not (= x10 x26)))
(assert (not (= x10 x27)))
(assert (not (= x10 x34)))
(assert (not (= x10 x37)))
(assert (not (= x10 x38)))
(assert (not (= x10 x45)))
(assert (not (= x10 x50)))
(assert (not (= x10 x51)))
(assert (not (= x10 x58)))
(assert (not (= x10 x61)))
(assert (not (= x10 x62)))
(assert (not (= x10 x69)))
(assert (not (= x10 x73)))
(assert (not (= x10 x74)))
(assert (not (= x10 x81)))
(assert (not (= x10 x84)))
(assert (not (= x10 x85)))
(assert (not (= x10 x92)))
(assert (not (= x11 x17)))
(assert (not (= x11 x18)))
(assert (not (= x11 x19)))
(assert (not (= x11 x20)))
(assert (not (= x11 x21)))
(assert (not (= x11 x29)))
(assert (not (= x11 x30)))
(assert (not (= x11 x31)))
(assert (not (= x11 x32)))
(assert (not (= x11 x33)))
(assert (not (= x11 x40)))
(assert (not (= x11 x41)))
(assert (not (= x11 x42)))
(assert (not (= x11 x43)))
(assert (not (= x11 x44)))
(assert (not (= x11 x53)))
(assert (not (= x11 x54)))
(assert (not (= x11 x55)))
(assert (not (= x11 x56)))
(assert (not (= x11 x57)))
(assert (not (= x11 x64)))
(assert (not (= x11 x65)))
(assert (not (= x11 x66)))
(assert (not (= x11 x67)))
(assert (not (= x11 x68)))
(assert (not (= x11 x76)))
(assert (not (= x11 x77)))
(assert (not (= x11 x78)))
(assert (not (= x11 x79)))
(assert (not (= x11 x80)))
(assert (not (= x11 x87)))
(assert (not (= x11 x88)))
(assert (not (= x11 x89)))
(assert (not (= x11 x90)))
(assert (not (= x11 x91)))
(assert (not (= x12 x23)))
(assert (not (= x12 x25)))
(assert (not (= x12 x27)))
(assert (not (= x12 x30)))
(assert (not (= x12 x32)))
(assert (not (= x12 x46)))
(assert (not (= x12 x49)))
(assert (not (= x12 x51)))
(assert (not (= x12 x54)))
(assert (not (= x12 x56)))
(assert (not (= x12 x70)))
(assert (not (= x12 x72)))
(assert (not (= x12 x74)))
(assert (not (= x12 x77)))
(assert (not (= x12 x79)))
(assert (not (= x12 x93)))
(assert (not (= x13 x23)))
(assert (not (= x13 x24)))
(assert (not (= x13 x26)))
(assert (not (= x13 x29)))
(assert (not (= x13 x31)))
(assert (not (= x13 x46)))
(assert (not (= x13 x48)))
(assert (not (= x13 x50)))
(assert (not (= x13 x53)))
(assert (not (= x13 x55)))
(assert (not (= x13 x70)))
(assert (not (= x13 x71)))
(assert (not (= x13 x73)))
(assert (not (= x13 x76)))
(assert (not (= x13 x78)))
(assert (not (= x13 x93)))
(assert (not (= x14 x23)))
(assert (not (= x14 x25)))
(assert (not (= x14 x28)))
(assert (not (= x14 x30)))
(assert (not (= x14 x33)))
(assert (not (= x14 x46)))
(assert (not (= x14 x49)))
(assert (not (= x14 x52)))
(assert (not (= x14 x54)))
(assert (not (= x14 x57)))
(assert (not (= x14 x70)))
(assert (not (= x14 x72)))
(assert (not (= x14 x75)))
(assert (not (= x14 x77)))
(assert (not (= x14 x80)))
(assert (not (= x14 x93)))
(assert (not (= x15 x23)))
(assert (not (= x15 x24)))
(assert (not (= x15 x28)))
(assert (not (= x15 x29)))
(assert (not (= x15 x33)))
(assert (not (= x15 x46)))
(assert (not (= x15 x48)))
(assert (not (= x15 x52)))
(assert (not (= x15 x53)))
(assert (not (= x15 x57)))
(assert (not (= x15 x70)))
(assert (not (= x15 x71)))
(assert (not (= x15 x75)))
(assert (not (= x15 x76)))
(assert (not (= x15 x80)))
(assert (not (= x15 x93)))
(assert (not (= x16 x23)))
(assert (not (= x16 x26)))
(assert (not (= x16 x27)))
(assert (not (= x16 x31)))
(assert (not (= x16 x32)))
(assert (not (= x16 x46)))
(assert (not (= x16 x50)))
(assert (not (= x16 x51)))
(assert (not (= x16 x55)))
(assert (not (= x16 x56)))
(assert (not (= x16 x70)))
(assert (not (= x16 x73)))
(assert (not (= x16 x74)))
(assert (not (= x16 x78)))
(assert (not (= x16 x79)))
(assert (not (= x16 x93)))
(assert (not (= x17 x23)))
(assert (not (= x17 x25)))
(assert (not (= x17 x27)))
(assert (not (= x17 x34)))
(assert (not (= x17 x46)))
(assert (not (= x17 x49)))
(assert (not (= x17 x51)))
(assert (not (= x17 x58)))
(assert (not (= x17 x70)))
(assert (not (= x17 x72)))
(assert (not (= x17 x74)))
(assert (not (= x17 x81)))
(assert (not (= x17 x93)))
(assert (not (= x18 x23)))
(assert (not (= x18 x24)))
(assert (not (= x18 x26)))
(assert (not (= x18 x34)))
(assert (not (= x18 x46)))
(assert (not (= x18 x48)))
(assert (not (= x18 x50)))
(assert (not (= x18 x58)))
(assert (not (= x18 x70)))
(assert (not (= x18 x71)))
(assert (not (= x18 x73)))
(assert (not (= x18 x81)))
(assert (not (= x18 x93)))
(assert (not (= x19 x23)))
(assert (not (= x19 x25)))
(assert (not (= x19 x28)))
(assert (not (= x19 x34)))
(assert (not (= x19 x46)))
(assert (not (= x19 x49)))
(assert (not (= x19 x52)))
(assert (not (= x19 x58)))
(assert (not (= x19 x70)))
(assert (not (= x19 x72)))
(assert (not (= x19 x75)))
(assert (not (= x19 x81)))
(assert (not (= x19 x93)))
(assert (not (= x20 x23)))
(assert (not (= x20 x24)))
(assert (not (= x20 x28)))
(assert (not (= x20 x34)))
(assert (not (= x20 x46)))
(assert (not (= x20 x48)))
(assert (not (= x20 x52)))
(assert (not (= x20 x58)))
(assert (not (= x20 x70)))
(assert (not (= x20 x71)))
(assert (not (= x20 x75)))
(assert (not (= x20 x81)))
(assert (not (= x20 x93)))
(assert (not (= x21 x23)))
(assert (not (= x21 x26)))
(assert (not (= x21 x27)))
(assert (not (= x21 x34)))
(assert (not (= x21 x46)))
(assert (not (= x21 x50)))
(assert (not (= x21 x51)))
(assert (not (= x21 x58)))
(assert (not (= x21 x70)))
(assert (not (= x21 x73)))
(assert (not (= x21 x74)))
(assert (not (= x21 x81)))
(assert (not (= x21 x93)))
(assert (not (= x22 x23)))
(assert (not (= x22 x29)))
(assert (not (= x22 x30)))
(assert (not (= x22 x31)))
(assert (not (= x22 x32)))
(assert (not (= x22 x33)))
(assert (not (= x22 x46)))
(assert (not (= x22 x53)))
(assert (not (= x22 x54)))
(assert (not (= x22 x55)))
(assert (not (= x22 x56)))
(assert (not (= x22 x57)))
(assert (not (= x22 x70)))
(assert (not (= x22 x76)))
(assert (not (= x22 x77)))
(assert (not (= x22 x78)))
(assert (not (= x22 x79)))
(assert (not (= x22 x80)))
(assert (not (= x22 x93)))
(assert (not (= x23 x35)))
(assert (not (= x23 x36)))
(assert (not (= x23 x37)))
(assert (not (= x23 x38)))
(assert (not (= x23 x39)))
(assert (not (= x23 x40)))
(assert (not (= x23 x41)))
(assert (not (= x23 x42)))
(assert (not (= x23 x43)))
(assert (not (= x23 x44)))
(assert (not (= x23 x45)))
(assert (not (= x23 x59)))
(assert (not (= x23 x60)))
(assert (not (= x23 x61)))
(assert (not (= x23 x62)))
(assert (not (= x23 x63)))
(assert (not (= x23 x64)))
(assert (not (= x23 x65)))
(assert (not (= x23 x66)))
(assert (not (= x23 x67)))
(assert (not (= x23 x68)))
(assert (not (= x23 x69)))
(assert (not (= x23 x82)))
(assert (not (= x23 x83)))
(assert (not (= x23 x84)))
(assert (not (= x23 x85)))
(assert (not (= x23 x86)))
(assert (not (= x23 x87)))
(assert (not (= x23 x88)))
(assert (not (= x23 x89)))
(assert (not (= x23 x90)))
(assert (not (= x23 x91)))
(assert (not (= x23 x92)))
(assert (not (= x24 x47)))
(assert (not (= x24 x49)))
(assert (not (= x24 x51)))
(assert (not (= x24 x54)))
(assert (not (= x24 x56)))
(assert (not (= x24 x60)))
(assert (not (= x24 x62)))
(assert (not (= x24 x65)))
(assert (not (= x24 x67)))
(assert (not (= x24 x94)))
(assert (not (= x25 x47)))
(assert (not (= x25 x48)))
(assert (not (= x25 x50)))
(assert (not (= x25 x53)))
(assert (not (= x25 x55)))
(assert (not (= x25 x59)))
(assert (not (= x25 x61)))
(assert (not (= x25 x64)))
(assert (not (= x25 x66)))
(assert (not (= x25 x94)))
(assert (not (= x26 x47)))
(assert (not (= x26 x49)))
(assert (not (= x26 x52)))
(assert (not (= x26 x54)))
(assert (not (= x26 x57)))
(assert (not (= x26 x60)))
(assert (not (= x26 x63)))
(assert (not (= x26 x65)))
(assert (not (= x26 x68)))
(assert (not (= x26 x94)))
(assert (not (= x27 x47)))
(assert (not (= x27 x48)))
(assert (not (= x27 x52)))
(assert (not (= x27 x53)))
(assert (not (= x27 x57)))
(assert (not (= x27 x59)))
(assert (not (= x27 x63)))
(assert (not (= x27 x64)))
(assert (not (= x27 x68)))
(assert (not (= x27 x94)))
(assert (not (= x28 x47)))
(assert (not (= x28 x50)))
(assert (not (= x28 x51)))
(assert (not (= x28 x55)))
(assert (not (= x28 x56)))
(assert (not (= x28 x61)))
(assert (not (= x28 x62)))
(assert (not (= x28 x66)))
(assert (not (= x28 x67)))
(assert (not (= x28 x94)))
(assert (not (= x29 x47)))
(assert (not (= x29 x49)))
(assert (not (= x29 x51)))
(assert (not (= x29 x58)))
(assert (not (= x29 x60)))
(assert (not (= x29 x62)))
(assert (not (= x29 x69)))
(assert (not (= x29 x94)))
(assert (not (= x30 x47)))
(assert (not (= x30 x48)))
(assert (not (= x30 x50)))
(assert (not (= x30 x58)))
(assert (not (= x30 x59)))
(assert (not (= x30 x61)))
(assert (not (= x30 x69)))
(assert (not (= x30 x94)))
(assert (not (= x31 x47)))
(assert (not (= x31 x49)))
(assert (not (= x31 x52)))
(assert (not (= x31 x58)))
(assert (not (= x31 x60)))
(assert (not (= x31 x63)))
(assert (not (= x31 x69)))
(assert (not (= x31 x94)))
(assert (not (= x32 x47)))
(assert (not (= x32 x48)))
(assert (not (= x32 x52)))
(assert (not (= x32 x58)))
(assert (not (= x32 x59)))
(assert (not (= x32 x63)))
(assert (not (= x32 x69)))
(assert (not (= x32 x94)))
(assert (not (= x33 x47)))
(assert (not (= x33 x50)))
(assert (not (= x33 x51)))
(assert (not (= x33 x58)))
(assert (not (= x33 x61)))
(assert (not (= x33 x62)))
(assert (not (= x33 x69)))
(assert (not (= x33 x94)))
(assert (not (= x34 x47)))
(assert (not (= x34 x53)))
(assert (not (= x34 x54)))
(assert (not (= x34 x55)))
(assert (not (= x34 x56)))
(assert (not (= x34 x57)))
(assert (not (= x34 x64)))
(assert (not (= x34 x65)))
(assert (not (= x34 x66)))
(assert (not (= x34 x67)))
(assert (not (= x34 x68)))
(assert (not (= x34 x94)))
(assert (not (= x35 x47)))
(assert (not (= x35 x49)))
(assert (not (= x35 x51)))
(assert (not (= x35 x54)))
(assert (not (= x35 x56)))
(assert (not (= x35 x70)))
(assert (not (= x35 x94)))
(assert (not (= x36 x47)))
(assert (not (= x36 x48)))
(assert (not (= x36 x50)))
(assert (not (= x36 x53)))
(assert (not (= x36 x55)))
(assert (not (= x36 x70)))
(assert (not (= x36 x94)))
(assert (not (= x37 x47)))
(assert (not (= x37 x49)))
(assert (not (= x37 x52)))
(assert (not (= x37 x54)))
(assert (not (= x37 x57)))
(assert (not (= x37 x70)))
(assert (not (= x37 x94)))
(assert (not (= x38 x47)))
(assert (not (= x38 x48)))
(assert (not (= x38 x52)))
(assert (not (= x38 x53)))
(assert (not (= x38 x57)))
(assert (not (= x38 x70)))
(assert (not (= x38 x94)))
(assert (not (= x39 x47)))
(assert (not (= x39 x50)))
(assert (not (= x39 x51)))
(assert (not (= x39 x55)))
(assert (not (= x39 x56)))
(assert (not (= x39 x70)))
(assert (not (= x39 x94)))
(assert (not (= x40 x47)))
(assert (not (= x40 x49)))
(assert (not (= x40 x51)))
(assert (not (= x40 x58)))
(assert (not (= x40 x70)))
(assert (not (= x40 x94)))
(assert (not (= x41 x47)))
(assert (not (= x41 x48)))
(assert (not (= x41 x50)))
(assert (not (= x41 x58)))
(assert (not (= x41 x70)))
(assert (not (= x41 x94)))
(assert (not (= x42 x47)))
(assert (not (= x42 x49)))
(assert (not (= x42 x52)))
(assert (not (= x42 x58)))
(assert (not (= x42 x70)))
(assert (not (= x42 x94)))
(assert (not (= x43 x47)))
(assert (not (= x43 x48)))
(assert (not (= x43 x52)))
(assert (not (= x43 x58)))
(assert (not (= x43 x70)))
(assert (not (= x43 x94)))
(assert (not (= x44 x47)))
(assert (not (= x44 x50)))
(assert (not (= x44 x51)))
(assert (not (= x44 x58)))
(assert (not (= x44 x70)))
(assert (not (= x44 x94)))
(assert (not (= x45 x47)))
(assert (not (= x45 x53)))
(assert (not (= x45 x54)))
(assert (not (= x45 x55)))
(assert (not (= x45 x56)))
(assert (not (= x45 x57)))
(assert (not (= x45 x70)))
(assert (not (= x45 x94)))
(assert (not (= x46 x47)))
(assert (not (= x46 x59)))
(assert (not (= x46 x60)))
(assert (not (= x46 x61)))
(assert (not (= x46 x62)))
(assert (not (= x46 x63)))
(assert (not (= x46 x64)))
(assert (not (= x46 x65)))
(assert (not (= x46 x66)))
(assert (not (= x46 x67)))
(assert (not (= x46 x68)))
(assert (not (= x46 x69)))
(assert (not (= x46 x94)))
(assert (not (= x47 x71)))
(assert (not (= x47 x72)))
(assert (not (= x47 x73)))
(assert (not (= x47 x74)))
(assert (not (= x47 x75)))
(assert (not (= x47 x76)))
(assert (not (= x47 x77)))
(assert (not (= x47 x78)))
(assert (not (= x47 x79)))
(assert (not (= x47 x80)))
(assert (not (= x47 x81)))
(assert (not (= x47 x82)))
(assert (not (= x47 x83)))
(assert (not (= x47 x84)))
(assert (not (= x47 x85)))
(assert (not (= x47 x86)))
(assert (not (= x47 x87)))
(assert (not (= x47 x88)))
(assert (not (= x47 x89)))
(assert (not (= x47 x90)))
(assert (not (= x47 x91)))
(assert (not (= x47 x92)))
(assert (not (= x47 x93)))
(assert (not (= x48 x95)))
(assert (not (= x49 x95)))
(assert (not (= x50 x95)))
(assert (not (= x51 x95)))
(assert (not (= x52 x95)))
(assert (not (= x53 x95)))
(assert (not (= x54 x95)))
(assert (not (= x55 x95)))
(assert (not (= x56 x95)))
(assert (not (= x57 x95)))
(assert (not (= x58 x95)))
(assert (not (= x59 x95)))
(assert (not (= x60 x95)))
(assert (not (= x61 x95)))
(assert (not (= x62 x95)))
(assert (not (= x63 x95)))
(assert (not (= x64 x95)))
(assert (not (= x65 x95)))
(assert (not (= x66 x95)))
(assert (not (= x67 x95)))
(assert (not (= x68 x95)))
(assert (not (= x69 x95)))
(assert (not (= x70 x95)))
(assert (not (= x71 x95)))
(assert (not (= x72 x95)))
(assert (not (= x73 x95)))
(assert (not (= x74 x95)))
(assert (not (= x75 x95)))
(assert (not (= x76 x95)))
(assert (not (= x77 x95)))
(assert (not (= x78 x95)))
(assert (not (= x79 x95)))
(assert (not (= x80 x95)))
(assert (not (= x81 x95)))
(assert (not (= x82 x95)))
(assert (not (= x83 x95)))
(assert (not (= x84 x95)))
(assert (not (= x85 x95)))
(assert (not (= x86 x95)))
(assert (not (= x87 x95)))
(assert (not (= x88 x95)))
(assert (not (= x89 x95)))
(assert (not (= x90 x95)))
(assert (not (= x91 x95)))
(assert (not (= x92 x95)))
(assert (not (= x93 x95)))
(assert (not (= x94 x95)))
(check-sat)
(exit)
